(declare-const X String)
; www\.thecommunicator\.net\d+http\x3A\x2F\x2Ftv\x2Eseekmo\x2Ecom\x2Fshowme\x2Easpx\x3Fkeyword=
(assert (not (str.in_re X (re.++ (str.to_re "www.thecommunicator.net") (re.+ (re.range "0" "9")) (str.to_re "http://tv.seekmo.com/showme.aspx?keyword=\u{a}")))))
(check-sat)

(exit)
